
n_res = 4;
rcap = [19, 19, 232, 226];
rtype = [1, 1, 2, 2];
n_tasks = 50;
modes =  [{1, 2, 3}, {4, 5, 6}, {7, 8, 9}, {10, 11, 12}, {13, 14, 15}, {16, 17, 18}, {19, 20, 21}, {22, 23, 24}, {25, 26, 27}, {28, 29, 30}, {31, 32, 33}, {34, 35, 36}, {37, 38, 39}, {40, 41, 42}, {43, 44, 45}, {46, 47, 48}, {49, 50, 51}, {52, 53, 54}, {55, 56, 57}, {58, 59, 60}, {61, 62, 63}, {64, 65, 66}, {67, 68, 69}, {70, 71, 72}, {73, 74, 75}, {76, 77, 78}, {79, 80, 81}, {82, 83, 84}, {85, 86, 87}, {88, 89, 90}, {91, 92, 93}, {94, 95, 96}, {97, 98, 99}, {100, 101, 102}, {103, 104, 105}, {106, 107, 108}, {109, 110, 111}, {112, 113, 114}, {115, 116, 117}, {118, 119, 120}, {121, 122, 123}, {124, 125, 126}, {127, 128, 129}, {130, 131, 132}, {133, 134, 135}, {136, 137, 138}, {139, 140, 141}, {142, 143, 144}, {145, 146, 147}, {148, 149, 150}];
succ =  [{14, 11, 10, 9, 8, 7}, {21, 17, 12, 11, 10, 9}, {21, 14, 13, 12, 10}, {12, 6}, {22, 17, 12, 8}, {20, 17, 13, 10}, {22, 20, 12}, {21, 20, 19, 18, 15}, {20, 13}, {22, 19, 18, 15}, {22, 20, 18, 15}, {19, 18, 15}, {22, 19, 15}, {23, 20, 19, 18}, {26, 24, 16}, {37, 27, 25, 23}, {37, 26, 25, 23}, {37, 35, 33, 32, 31, 29, 28}, {29, 28, 27, 26, 24}, {40, 37, 33, 30, 25}, {28, 27, 25}, {40, 27, 25}, {39, 36, 35, 33, 32, 28}, {40, 39, 37, 36, 35, 30}, {35, 34, 32, 31, 29}, {39, 38, 36, 35, 34}, {36, 35, 30}, {40, 30}, {44, 43, 39, 38, 36}, {43, 42, 38, 34}, {43, 38, 36}, {43, 42, 38}, {43, 38}, {47, 44, 41}, {47, 43, 41}, {50, 47, 42}, {50, 43, 42}, {47, 41}, {47, 41}, {47, 41}, {50, 49, 46, 45}, {49, 46, 45}, {46}, {45}, {48}, {48}, {49}, {}, {}, {}];
n_opt = 150;
dur = [1, 4, 6, 5, 6, 6, 4, 9, 10, 2, 7, 10, 2, 3, 5, 1, 2, 5, 1, 3, 4, 1, 5, 7, 1, 5, 8, 5, 7, 9, 8, 9, 10, 3, 3, 4, 2, 3, 8, 1, 2, 3, 1, 7, 8, 1, 8, 9, 5, 6, 9, 1, 3, 9, 1, 4, 5, 1, 2, 3, 1, 1, 4, 7, 8, 9, 5, 5, 8, 3, 6, 10, 2, 8, 10, 3, 5, 10, 3, 4, 5, 1, 2, 6, 2, 7, 10, 1, 2, 3, 1, 2, 7, 2, 5, 6, 6, 7, 10, 6, 9, 10, 2, 4, 8, 3, 6, 8, 1, 4, 7, 3, 4, 10, 2, 3, 10, 6, 6, 7, 7, 8, 9, 5, 5, 6, 1, 6, 10, 7, 8, 9, 5, 9, 10, 2, 3, 4, 2, 7, 8, 2, 7, 10, 3, 5, 8, 4, 8, 9];
rreq = [|7, 0, 0, 0, 0, 8, 0, 4, 0, 9, 0, 5, 0, 5, 3, 0, 0, 9, 0, 7, 7, 8, 7, 6, 0, 4, 0, 9, 0, 0, 0, 7, 5, 6, 0, 0, 0, 1, 0, 0, 8, 8, 0, 5, 0, 4, 0, 0, 8, 7, 0, 5, 4, 4, 4, 3, 2, 7, 7, 3, 5, 0, 3, 0, 5, 5, 5, 0, 0, 0, 4, 0, 10, 0, 0, 0, 0, 5, 8, 7, 0, 0, 0, 3, 7, 5, 0, 5, 0, 0, 4, 4, 0, 0, 4, 2, 0, 3, 0, 0, 0, 4, 0, 5, 0, 5, 4, 4, 0, 0, 2, 0, 0, 0, 8, 5, 3, 0, 8, 6, 0, 3, 3, 7, 0, 0, 0, 6, 5, 9, 9, 9, 0, 0, 0, 0, 0, 0, 0, 8, 0, 8, 6, 6, 7, 5, 0, 0, 5, 5
 |0, 8, 8, 5, 3, 0, 9, 0, 8, 0, 5, 0, 7, 0, 0, 7, 3, 0, 6, 0, 0, 0, 0, 0, 6, 0, 3, 0, 4, 1, 9, 0, 0, 0, 4, 4, 6, 0, 5, 9, 0, 0, 8, 0, 8, 0, 8, 7, 0, 0, 1, 0, 0, 0, 0, 0, 0, 0, 0, 0, 0, 5, 0, 8, 0, 0, 0, 4, 4, 1, 0, 1, 0, 5, 4, 9, 4, 0, 0, 0, 1, 8, 8, 0, 0, 0, 5, 0, 7, 6, 0, 0, 5, 10, 0, 0, 6, 0, 4, 6, 2, 0, 6, 0, 3, 0, 0, 0, 5, 5, 0, 8, 6, 6, 0, 0, 0, 8, 0, 0, 7, 0, 0, 0, 3, 3, 5, 0, 0, 0, 0, 0, 10, 9, 7, 8, 8, 8, 6, 0, 1, 0, 0, 0, 0, 0, 4, 7, 0, 0
 |7, 7, 7, 8, 6, 6, 2, 2, 2, 4, 4, 4, 6, 6, 4, 10, 8, 8, 5, 3, 2, 9, 6, 2, 5, 5, 5, 4, 4, 4, 10, 9, 7, 6, 4, 3, 7, 6, 6, 2, 2, 2, 2, 2, 1, 7, 6, 5, 6, 6, 6, 8, 8, 8, 3, 3, 3, 7, 4, 3, 9, 9, 8, 3, 2, 2, 5, 5, 5, 7, 6, 6, 8, 8, 5, 10, 6, 6, 8, 8, 7, 7, 6, 6, 7, 7, 6, 4, 4, 4, 5, 4, 3, 7, 3, 2, 5, 3, 3, 5, 5, 4, 10, 7, 6, 9, 6, 6, 8, 4, 1, 8, 7, 7, 3, 2, 1, 9, 9, 9, 2, 2, 2, 2, 2, 2, 3, 2, 2, 4, 2, 1, 8, 7, 7, 6, 4, 1, 5, 5, 1, 7, 6, 6, 2, 2, 2, 4, 4, 1
 |3, 3, 2, 10, 10, 10, 8, 7, 6, 6, 4, 3, 4, 4, 3, 5, 3, 2, 5, 5, 4, 6, 4, 3, 6, 5, 4, 5, 4, 4, 10, 9, 9, 5, 3, 2, 5, 4, 3, 8, 8, 7, 5, 3, 2, 6, 5, 5, 9, 9, 9, 9, 8, 7, 8, 3, 3, 8, 5, 5, 6, 4, 4, 6, 7, 6, 4, 4, 3, 3, 2, 1, 9, 7, 2, 2, 1, 1, 9, 8, 7, 5, 3, 2, 8, 7, 5, 4, 4, 4, 10, 7, 3, 7, 5, 4, 6, 5, 4, 3, 1, 1, 6, 5, 3, 5, 5, 4, 7, 7, 5, 10, 6, 5, 9, 7, 4, 9, 6, 5, 1, 2, 1, 5, 6, 5, 10, 6, 4, 5, 4, 2, 5, 3, 2, 4, 4, 4, 9, 9, 7, 3, 2, 1, 3, 3, 2, 3, 3, 3|];